results/res_prop_muc/res_Cimatti_mathsat_cores/QF_UF/PEQ014_size8.smt.smt2.out

real	0m11.244s
user	0m11.028s
sys	0m0.159s
