results/res_prop_muc/res_Cimatti_mathsat_cores/QF_UF/PEQ014_size8.smt.smt2.res
unsat
( _c0
  _c1218
  _c1219
  _c1220
  _c1225
  _c1232
  _c1250
  _c1273
  _c1275
  _c1276
  _c1282
  _c1283
  _c1284
  _c1289
  _c1296
  _c1314
  _c1337
  _c1339
  _c1340
  _c1482
  _c1483
  _c1484
  _c1489
  _c1496
  _c1514
  _c1537
  _c1539
  _c1540
  _c1551
  _c1552
  _c1553
  _c1556
  _c1557
  _c1558
  _c1559
  _c1562
  _c1563
  _c1574 )
